(set-info :smt-lib-version 2.6)
(set-logic QF_LIA)
(set-info :category "industrial")
(set-info :status sat)
(declare-fun x0 () Int)
(declare-fun x1 () Int)
(declare-fun x10 () Int)
(declare-fun x11 () Int)
(declare-fun x12 () Int)
(declare-fun x13 () Int)
(declare-fun x14 () Int)
(declare-fun x15 () Int)
(declare-fun x16 () Int)
(declare-fun x17 () Int)
(declare-fun x18 () Int)
(declare-fun x19 () Int)
(declare-fun x2 () Int)
(declare-fun x20 () Int)
(declare-fun x21 () Int)
(declare-fun x22 () Int)
(declare-fun x23 () Int)
(declare-fun x24 () Int)
(declare-fun x25 () Int)
(declare-fun x26 () Int)
(declare-fun x27 () Int)
(declare-fun x28 () Int)
(declare-fun x29 () Int)
(declare-fun x3 () Int)
(declare-fun x4 () Int)
(declare-fun x5 () Int)
(declare-fun x6 () Int)
(declare-fun x7 () Int)
(declare-fun x8 () Int)
(declare-fun x9 () Int)
(assert (let ((?v_0 (* 1 x1)) (?v_7 (* 1 x16)) (?v_13 (* 0 x17)) (?v_2 (* 1 x20)) (?v_3 (* 0 x21)) (?v_21 (* 0 x24)) (?v_28 (* 0 x25)) (?v_15 (* 0 x26)) (?v_4 (* 0 x28)) (?v_9 (* 0 x4)) (?v_5 (* 0 x6)) (?v_8 (* 0 x7)) (?v_22 (* 1 x0)) (?v_12 (* 0 x12)) (?v_18 (* 0 x16)) (?v_68 (* 1 x26)) (?v_93 (* 1 x4)) (?v_10 (* 1 x9)) (?v_74 (* 1 x11)) (?v_31 (* 0 x14)) (?v_65 (* 0 x2)) (?v_14 (* 0 x20)) (?v_63 (* 0 x3)) (?v_26 (* 1 x23)) (?v_45 (* 1 x24)) (?v_39 (* 1 x28)) (?v_16 (* 1 x29)) (?v_40 (* 0 x5))) (let ((?v_101 (+ ?v_40 ?v_10)) (?v_29 (* 0 x0)) (?v_20 (* 0 x19)) (?v_61 (* 1 x6)) (?v_41 (* 0 x8)) (?v_83 (* 0 x9)) (?v_66 (* 2 x21)) (?v_82 (* 2 x28)) (?v_55 (* 1 x5)) (?v_95 (* 2 x7)) (?v_43 (* 1 x12)) (?v_30 (* 0 x13)) (?v_54 (* 1 x14)) (?v_36 (* 0 x18)) (?v_35 (* 0 x29)) (?v_32 (* 1 x18)) (?v_44 (* 0 x15)) (?v_69 (* 0 x27)) (?v_73 (+ ?v_8 ?v_10)) (?v_53 (* 0 x1)) (?v_48 (* 1 x15)) (?v_58 (* 1 x17)) (?v_42 (* 0 x10)) (?v_59 (* 0 x11)) (?v_60 (* 1 x19)) (?v_92 (* 1 x13)) (?v_49 (* 0 x22)) (?v_50 (* 2 x23)) (?v_72 (* 1 x25)) (?v_70 (* 1 x8)) (?v_71 (* 1 x21)) (?v_78 (* 1 x3)) (?v_97 (* 1 x27)) (?v_79 (* 1 x10)) (?v_67 (* 0 x23)) (?v_87 (* 1 x2)) (?v_98 (* 2 x29)) (?v_84 (* 2 x24)) (?v_90 (* 2 x6)) (?v_89 (* 1 x7)) (?v_99 (* 2 x18)) (?v_100 (* 1 x22)) (?v_17 (* (- 1) x10)) (?v_62 (* (- 1) x11)) (?v_1 (* (- 1) x14)) (?v_34 (* (- 1) x3)) (?v_11 (* (- 2) x3)) (?v_57 (* (- 1) x13)) (?v_6 (* (- 1) x15)) (?v_25 (* (- 1) x29)) (?v_103 (* (- 1) x12)) (?v_76 (* (- 1) x18)) (?v_23 (* (- 1) x19)) (?v_47 (* (- 1) x2)) (?v_19 (* (- 1) x25)) (?v_56 (* (- 1) x0)) (?v_86 (* (- 1) x20)) (?v_37 (* (- 1) x23)) (?v_24 (* (- 1) x26)) (?v_27 (* (- 1) x4)) (?v_46 (* (- 1) x9)) (?v_38 (* (- 1) x27)) (?v_80 (* (- 2) x24)) (?v_33 (* (- 1) x22)) (?v_81 (* (- 1) x24)) (?v_51 (* (- 1) x8)) (?v_64 (* (- 1) x1)) (?v_75 (* (- 1) x16)) (?v_52 (* (- 1) x17)) (?v_94 (* (- 1) x6)) (?v_104 (* (- 1) x7)) (?v_77 (* (- 1) x28)) (?v_85 (* (- 2) x6)) (?v_102 (* (- 2) x0)) (?v_96 (* (- 1) x21)) (?v_88 (* (- 1) x5)) (?v_91 (* (- 2) x14))) (and (<= (+ ?v_17 (+ ?v_62 (+ ?v_0 (+ ?v_1 (+ ?v_7 (+ ?v_13 (+ ?v_2 (+ ?v_34 (+ ?v_3 (+ ?v_21 (+ ?v_28 (+ ?v_15 (+ ?v_4 (+ ?v_9 (+ ?v_5 (+ ?v_8 (* 2 x9))))))))))))))))) (- 1)) (<= (+ ?v_11 (+ ?v_22 (+ ?v_0 (+ ?v_12 (+ ?v_57 (+ ?v_1 (+ ?v_6 (+ ?v_18 (+ ?v_2 (+ ?v_25 (+ ?v_3 (+ ?v_68 (+ ?v_4 (+ ?v_5 (+ ?v_93 (+ ?v_10 (* 2 x8))))))))))))))))) 1) (<= (+ ?v_74 (+ ?v_103 (+ ?v_31 (+ ?v_6 (+ ?v_7 (+ ?v_76 (+ ?v_23 (+ ?v_65 (+ ?v_14 (+ ?v_3 (+ ?v_63 (+ ?v_5 (+ ?v_8 (+ ?v_26 (+ ?v_45 (+ (* 3 x26) (+ ?v_39 (+ ?v_16 (+ ?v_9 ?v_101))))))))))))))))))) 1) (<= (+ ?v_11 (+ ?v_29 (+ ?v_12 (+ ?v_6 (+ ?v_47 (+ ?v_13 (+ ?v_19 (+ ?v_20 (+ ?v_14 (+ ?v_15 (+ ?v_16 (+ ?v_61 (+ ?v_41 (+ ?v_83 (+ ?v_66 (+ ?v_82 (+ ?v_55 ?v_95))))))))))))))))) (- 1)) (<= (+ ?v_56 (+ ?v_17 (+ ?v_43 (+ ?v_30 (+ ?v_54 (+ ?v_6 (+ ?v_18 (+ ?v_86 (+ ?v_36 (+ ?v_37 (+ ?v_19 (+ ?v_24 (+ ?v_27 (+ ?v_46 (+ ?v_20 (+ ?v_21 (+ ?v_38 (+ ?v_35 ?v_5)))))))))))))))))) 0) (<= (+ ?v_22 (+ (* (- 2) x13) (+ ?v_18 (+ ?v_32 (+ ?v_80 (+ ?v_11 (+ ?v_1 (+ ?v_23 (+ ?v_44 (+ ?v_33 (+ ?v_24 (+ ?v_25 (+ ?v_26 (+ ?v_27 (+ ?v_28 (+ ?v_69 ?v_73)))))))))))))))) 0) (<= (+ (* (- 2) x7) (+ ?v_29 (+ ?v_53 (+ ?v_30 (+ ?v_31 (+ ?v_3 (+ ?v_48 (+ ?v_7 (+ ?v_58 (+ ?v_32 (+ ?v_33 (+ ?v_81 (+ ?v_26 (+ ?v_19 (+ ?v_34 (+ ?v_15 (+ ?v_35 (+ (* (- 2) x5) ?v_51)))))))))))))))))) (- 1)) (<= (+ ?v_64 (+ ?v_42 (+ ?v_59 (+ ?v_22 (+ ?v_12 (+ ?v_13 (+ ?v_36 (+ ?v_14 (+ ?v_37 (+ ?v_30 (+ ?v_21 (+ ?v_19 (+ ?v_60 (+ ?v_38 (+ ?v_39 (+ ?v_40 (+ ?v_8 ?v_41))))))))))))))))) (- 1)) (<= (+ ?v_75 (+ ?v_42 (+ ?v_52 (+ ?v_43 (+ ?v_92 (+ ?v_31 (+ ?v_44 (+ ?v_14 (+ ?v_49 (+ ?v_45 (+ ?v_50 (+ ?v_28 (+ ?v_38 (+ ?v_4 (+ ?v_27 (+ ?v_46 (+ ?v_40 (+ ?v_5 ?v_41)))))))))))))))))) 0) (<= (+ ?v_47 (+ ?v_42 (+ ?v_34 (+ ?v_46 (+ ?v_43 (+ ?v_30 (+ ?v_20 (+ ?v_14 (+ ?v_3 (+ ?v_8 (+ ?v_48 (+ ?v_32 (+ ?v_49 (+ ?v_45 (+ ?v_50 (+ ?v_72 (+ ?v_38 (+ ?v_27 (+ ?v_51 (* 2 x5)))))))))))))))))))) (- 1)) (<= (+ ?v_52 (+ ?v_47 (+ ?v_29 (+ ?v_53 (+ ?v_42 (+ ?v_36 (+ ?v_20 (+ ?v_3 (+ ?v_54 (+ ?v_49 (+ ?v_38 (+ ?v_94 (+ ?v_46 (+ ?v_16 (+ ?v_9 (+ ?v_55 ?v_70)))))))))))))))) 0) (<= (+ ?v_56 (+ ?v_12 (+ ?v_57 (+ ?v_58 (+ ?v_37 (+ ?v_24 (+ ?v_20 (+ ?v_21 (+ ?v_41 (+ ?v_54 (+ ?v_71 (+ ?v_16 (+ ?v_78 (+ (* 2 x15) (+ ?v_33 (+ (* 2 x25) (+ ?v_38 (+ ?v_4 (+ ?v_9 ?v_55))))))))))))))))))) 0) (<= (+ ?v_47 (+ ?v_29 (+ ?v_42 (+ ?v_59 (+ ?v_18 (+ ?v_14 (+ ?v_58 (+ ?v_32 (+ ?v_37 (+ ?v_34 (+ ?v_21 (+ ?v_35 (+ (* 2 x13) (+ (* (- 2) x25) (+ ?v_27 (+ ?v_31 (+ ?v_8 (+ ?v_60 (+ ?v_97 (+ ?v_39 ?v_61)))))))))))))))))))) (- 1)) (<= (+ ?v_62 (+ ?v_47 (+ ?v_22 (+ ?v_79 (+ ?v_12 (+ ?v_23 (+ ?v_19 (+ ?v_25 (+ ?v_46 (+ ?v_31 (+ ?v_32 (+ ?v_3 (+ ?v_67 (+ ?v_21 (+ ?v_4 (+ ?v_63 (+ ?v_55 ?v_61))))))))))))))))) 0) (<= (+ ?v_64 (+ ?v_42 (+ (* 2 x0) (+ ?v_19 (+ ?v_34 (+ ?v_54 (+ ?v_44 (+ ?v_65 (+ ?v_66 (+ ?v_67 (+ ?v_21 (+ ?v_68 (+ ?v_69 (+ ?v_4 (+ ?v_35 (+ ?v_61 ?v_70)))))))))))))))) 0) (<= (+ ?v_62 (+ ?v_104 (+ ?v_29 (+ ?v_53 (+ ?v_42 (+ ?v_43 (+ ?v_30 (+ (* (- 2) x4) (+ ?v_44 (+ ?v_18 (+ ?v_13 (+ ?v_87 (+ ?v_71 (+ ?v_67 (+ ?v_45 (+ ?v_28 (+ ?v_15 (+ ?v_41 ?v_39)))))))))))))))))) 0) (<= (+ (* (- 2) x20) (+ ?v_43 (+ ?v_30 (+ ?v_54 (+ ?v_6 (+ ?v_18 (+ ?v_13 (+ ?v_36 (+ ?v_65 (+ ?v_77 (+ ?v_20 (+ ?v_49 (+ ?v_21 (+ ?v_15 (+ ?v_72 (+ ?v_69 (+ ?v_98 (+ ?v_9 (+ ?v_5 ?v_73))))))))))))))))))) (- 1)) (<= (+ ?v_85 (+ ?v_64 (+ ?v_29 (+ ?v_42 (+ ?v_74 (+ ?v_18 (+ ?v_20 (+ ?v_65 (+ ?v_14 (+ ?v_3 (+ ?v_54 (+ ?v_48 (+ ?v_49 (+ ?v_67 (+ ?v_21 (+ ?v_72 (+ ?v_69 (+ ?v_4 (+ ?v_9 ?v_70))))))))))))))))))) 1) (<= (+ ?v_102 (+ ?v_17 (+ ?v_74 (+ ?v_12 (+ ?v_1 (+ ?v_75 (+ ?v_76 (+ ?v_2 (+ ?v_77 (+ ?v_27 (+ ?v_46 (+ ?v_48 (+ ?v_49 (+ ?v_84 (+ ?v_72 (+ ?v_69 (+ ?v_16 (+ ?v_78 ?v_70)))))))))))))))))) 0) (<= (+ ?v_75 (+ ?v_53 (+ ?v_59 (+ ?v_79 (+ ?v_80 (+ ?v_12 (+ ?v_31 (+ ?v_44 (+ ?v_65 (+ ?v_32 (+ ?v_60 (+ ?v_2 (+ ?v_49 (+ ?v_15 (+ ?v_72 (+ ?v_38 (+ ?v_35 (+ ?v_90 ?v_89)))))))))))))))))) (- 1)) (<= (+ ?v_18 (+ ?v_13 (+ ?v_36 (+ ?v_22 (+ ?v_0 (+ ?v_43 (+ ?v_2 (+ ?v_96 (+ ?v_37 (+ ?v_81 (+ ?v_20 (+ ?v_48 (+ ?v_49 (+ ?v_28 (+ ?v_38 (+ ?v_82 (+ ?v_9 (+ ?v_5 ?v_83)))))))))))))))))) 0) (<= (+ ?v_56 (+ ?v_59 (+ ?v_76 (+ ?v_24 (+ ?v_43 (+ ?v_30 (+ ?v_19 (+ ?v_31 (+ ?v_18 (+ ?v_58 (+ ?v_20 (+ ?v_3 (+ ?v_49 (+ ?v_8 (+ ?v_26 (+ ?v_78 (+ ?v_84 ?v_88))))))))))))))))) 0) (<= (+ ?v_85 (+ (* (- 3) x9) (+ ?v_86 (+ ?v_22 (+ ?v_0 (+ ?v_74 (+ ?v_12 (+ ?v_1 (+ ?v_18 (+ ?v_13 (+ ?v_36 (+ ?v_87 (+ ?v_77 (+ ?v_25 (+ ?v_34 (+ ?v_49 (+ ?v_45 (+ ?v_88 (+ ?v_89 ?v_41))))))))))))))))))) 0) (<= (+ ?v_56 (+ ?v_91 (+ ?v_7 (+ ?v_76 (+ ?v_13 (+ ?v_11 (+ ?v_23 (+ ?v_65 (+ ?v_2 (+ ?v_81 (+ ?v_24 (+ ?v_71 (+ ?v_49 (+ ?v_41 (+ ?v_83 (+ ?v_82 (+ (* 2 x4) (+ ?v_88 ?v_90)))))))))))))))))) 0) (<= (+ ?v_43 (+ ?v_6 (+ ?v_18 (+ ?v_13 (+ ?v_14 (+ ?v_3 (+ ?v_37 (+ ?v_15 (+ ?v_60 (+ ?v_87 (+ ?v_49 (+ ?v_72 (+ ?v_69 (+ ?v_39 (+ ?v_78 (+ ?v_9 (+ ?v_40 ?v_90))))))))))))))))) 1) (<= (+ (* 2 x10) (+ ?v_30 (+ ?v_91 (+ ?v_37 (+ ?v_77 (+ ?v_44 (+ ?v_18 (+ ?v_58 (+ ?v_20 (+ ?v_65 (+ ?v_2 (+ ?v_21 (+ ?v_71 (+ ?v_68 (+ ?v_69 (+ ?v_35 (+ ?v_63 (+ ?v_40 ?v_73)))))))))))))))))) 0) (<= (+ ?v_56 (+ ?v_75 (+ ?v_79 (+ ?v_46 (+ ?v_53 (+ ?v_13 (+ ?v_36 (+ ?v_14 (+ ?v_81 (+ ?v_3 (+ ?v_37 (+ ?v_15 (+ ?v_8 (+ ?v_92 (+ ?v_31 (+ ?v_69 (+ ?v_82 (+ ?v_93 (+ ?v_40 ?v_61))))))))))))))))))) 0) (<= (+ ?v_56 (+ ?v_42 (+ ?v_0 (+ ?v_24 (+ ?v_12 (+ ?v_19 (+ ?v_27 (+ ?v_94 (+ ?v_31 (+ ?v_44 (+ ?v_18 (+ ?v_58 (+ ?v_32 (+ ?v_71 (+ ?v_49 (+ ?v_21 (+ ?v_69 (+ ?v_82 (+ ?v_55 (+ ?v_95 ?v_70)))))))))))))))))))) 1) (<= (+ ?v_53 (+ ?v_59 (+ ?v_22 (+ ?v_79 (+ ?v_12 (+ ?v_1 (+ ?v_96 (+ ?v_19 (+ ?v_77 (+ ?v_94 (+ ?v_51 (+ ?v_48 (+ ?v_99 (+ ?v_33 (+ ?v_26 (+ ?v_45 (+ ?v_69 (+ ?v_93 ?v_55)))))))))))))))))) 0) (<= (+ ?v_75 (+ ?v_53 (+ ?v_43 (+ ?v_30 (+ ?v_31 (+ ?v_13 (+ ?v_36 (+ ?v_65 (+ ?v_33 (+ ?v_67 (+ ?v_28 (+ (* 2 x26) (+ ?v_69 (+ ?v_4 (+ ?v_9 (+ ?v_88 (+ ?v_61 (+ ?v_8 ?v_70)))))))))))))))))) 0) (<= (+ (* (- 2) x11) (+ ?v_24 (+ ?v_29 (+ ?v_42 (+ ?v_7 (+ ?v_87 (+ ?v_77 (+ ?v_94 (+ ?v_46 (+ ?v_20 (+ ?v_49 (+ ?v_21 (+ ?v_72 (+ ?v_69 (+ ?v_35 (+ ?v_63 ?v_88)))))))))))))))) (- 1)) (<= (+ ?v_81 (+ ?v_29 (+ ?v_74 (+ ?v_13 (+ ?v_36 (+ ?v_19 (+ ?v_25 (+ ?v_94 (+ ?v_20 (+ ?v_65 (+ ?v_14 (+ ?v_3 (+ ?v_15 (+ ?v_48 (+ ?v_97 ?v_89))))))))))))))) (- 1)) (<= (+ ?v_64 (+ ?v_59 (+ ?v_12 (+ ?v_57 (+ ?v_1 (+ ?v_13 (+ ?v_32 (+ ?v_23 (+ ?v_47 (+ ?v_44 (+ ?v_5 (+ ?v_2 (+ ?v_41 (+ ?v_100 (+ ?v_45 (+ ?v_69 (+ ?v_89 ?v_98))))))))))))))))) 0) (<= (+ ?v_64 (+ ?v_75 (+ ?v_42 (+ ?v_94 (+ ?v_46 (+ ?v_22 (+ ?v_1 (+ ?v_99 (+ ?v_20 (+ (* 2 x20) (+ ?v_45 (+ ?v_28 (+ ?v_4 (+ ?v_35 (+ ?v_41 (+ ?v_48 (+ ?v_100 (+ ?v_78 (+ ?v_89 (* 2 x27)))))))))))))))))))) (- 1)) (<= (+ ?v_56 (+ ?v_47 (+ ?v_42 (+ (* 2 x12) (+ ?v_92 (+ ?v_31 (+ ?v_7 (+ ?v_36 (+ ?v_58 (+ ?v_2 (+ ?v_71 (+ ?v_28 (+ ?v_4 (+ ?v_63 (+ ?v_9 (+ ?v_41 (+ ?v_100 (+ ?v_68 ?v_97)))))))))))))))))) 0) (<= (+ ?v_53 (+ ?v_65 (+ ?v_79 (+ ?v_43 (+ ?v_30 (+ ?v_4 (+ ?v_8 (+ ?v_54 (+ ?v_48 (+ ?v_7 (+ ?v_71 (+ (* 2 x19) (+ ?v_100 (+ ?v_68 (+ ?v_55 (+ ?v_61 ?v_10)))))))))))))))) (- 1)) (<= (+ ?v_56 (+ ?v_42 (+ ?v_59 (+ ?v_0 (+ ?v_12 (+ ?v_57 (+ ?v_6 (+ ?v_18 (+ ?v_52 (+ ?v_36 (+ ?v_23 (+ ?v_47 (+ ?v_96 (+ ?v_21 (+ ?v_5 (+ ?v_8 (+ ?v_72 (+ ?v_97 (+ ?v_40 ?v_70))))))))))))))))))) 0) (<= (+ ?v_62 (+ ?v_76 (+ ?v_29 (+ ?v_42 (+ ?v_43 (+ (* (- 2) x21) (+ ?v_37 (+ ?v_19 (+ ?v_27 (+ ?v_31 (+ ?v_44 (+ ?v_65 (+ ?v_7 (+ ?v_60 (+ ?v_49 (+ ?v_8 (+ ?v_41 (+ ?v_97 ?v_101)))))))))))))))))) 0) (<= (+ ?v_102 (+ ?v_64 (+ ?v_42 (+ ?v_74 (+ ?v_103 (+ ?v_57 (+ ?v_65 (+ ?v_14 (+ ?v_32 (+ ?v_81 (+ ?v_51 (+ ?v_3 (+ ?v_28 (+ ?v_4 (+ ?v_8 (+ ?v_60 (+ ?v_97 (+ ?v_78 (+ ?v_88 ?v_10))))))))))))))))))) 0) (<= (+ ?v_86 (+ ?v_29 (+ ?v_43 (+ ?v_31 (+ ?v_44 (+ ?v_3 (+ ?v_33 (+ ?v_104 (+ ?v_67 (+ ?v_21 (+ ?v_15 (+ ?v_35 (+ ?v_63 (+ ?v_9 (+ ?v_72 (+ ?v_97 (+ ?v_39 (+ ?v_88 (+ ?v_70 ?v_10))))))))))))))))))) (- 1))))))
(check-sat)
(exit)
